* Objective Fux66tion
min: 4 x992 +2 x991 +1 x990 +4 x772 +2 x771 +1 x770 +4 x882 +2 x881 +1 x880 +4 x662 +2 x661 +1 x660 ;
* Unique Constraints
1 x11 = 1;
1 x22 = 1;
1 x33 = 1;
1 x44 = 1;
1 x51 = 1;
1 x61 +1 x62 = 1;
1 x72 +1 x73 = 1;
1 x81 +1 x82 +1 x83 = 1;
1 x92 +1 x93 +1 x94 = 1;
1 x101 +1 x102 +1 x103 = 1;
1 x112 +1 x113 +1 x114 = 1;
* Precedence Constraints
-1 x11 +2 x22 >= 1;
-2 x22 +3 x33 >= 1;
-3 x33 +4 x44 >= 1;
-1 x51 +2 x22 >= 1;
-1 x61 -2 x62 +2 x72 +3 x73 >= 1;
-2 x72 -3 x73 +4 x44 >= 1;
-1 x81 -2 x82 -3 x83 +2 x92 +3 x93 +4 x94 >= 1;
-1 x101 +2 x102 +3 x103 +2 x112 +3 x113 +4 x114 >= 1;
* Resource Constraints
-1 x11 -1 x51 -1 x61 -1 x81 >= -4;
-1 x101 >= -1;
-1 x22 -1 x62 -1 x72 -1 x82 >= -4;
-1 x92 -1 x102 >= -2;
-1 x112 >= -1;
-1 x73 -1 x83 >= -2;
-1 x33 >= -1;
-1 x93 -1 x103 >= -2;
-1 x113 >= -1;
-1 x44 >= -1;
-1 x94 >= -1;
-1 x114 >= -1;
* Latency Constraints
-1 x11 +4 x992 +2 x991 +1 x990 >= 0;
-1 x22 +4 x992 +2 x991 +1 x990 >= 0;
-1 x33 +4 x882 +2 x881 +1 x880 >= 0;
-1 x44 +4 x882 +2 x881 +1 x880 >= 0;
-1 x51 +4 x992 +2 x991 +1 x990 >= 0;
-1 x61 -1 x62 +4 x992 +2 x991 +1 x990 >= 0;
-1 x72 -1 x73 +4 x992 +2 x991 +1 x990 >= 0;
-1 x81 -1 x82 -1 x83 +4 x992 +2 x991 +1 x990 >= 0;
-1 x92 -1 x93 -1 x94 +4 x772 +2 x771 +1 x770 >= 0;
-1 x101 -1 x102 -1 x103 +4 x772 +2 x771 +1 x770 >= 0;
-1 x112 -1 x113 -1 x114 +4 x662 +2 x661 +1 x660 >= 0;

